c FILE			: graph_micro.gr
c No. of vertices	: 5
c No. of directed edges	: 6
c Max. weight		: 100
c Min. weight		: 0
c A directed arc from u to v of weight w
c is represented below as ' a  u  v  w '
p sp 5 8
a 1 3 52
a 5 3 16
a 5 1 22
a 3 2 53
a 2 4 66
a 3 4 12
a 5 4 85
a 4 5 10
